(set-logic QF_SLIA)
(declare-fun var0 () String)
(assert (not (str.in_re var0 (re.++ ((_ re.loop 17 466) (re.++ (re.union (str.to_re ";*k") (re.union (str.to_re "_]") (re.union (str.to_re "0Q") (str.to_re "$")))) (re.++ (re.union (str.to_re "oT") (re.union (str.to_re "1k") (re.union (str.to_re "*X") (str.to_re "ux2")))) (re.++ (re.union (str.to_re "M5") (re.union (str.to_re "u") (re.union (str.to_re "}") (str.to_re ".nH")))) (re.union (str.to_re "+~") (re.union (str.to_re "ukw") (re.union (str.to_re "B") (str.to_re "0E]")))))))) (re.++ ((_ re.loop 11 477) (re.++ (re.union (str.to_re "--") (re.union (str.to_re "iID") (re.union (str.to_re ":m<") (str.to_re "<U")))) (re.++ (re.union (str.to_re "=o") (re.union (str.to_re "sU") (re.union (str.to_re "7:") (str.to_re "iJ_")))) (re.++ (re.union (str.to_re "em") (re.union (str.to_re "^vI") (re.union (str.to_re "^^U") (str.to_re ";?*")))) (re.union (str.to_re "?C") (re.union (str.to_re "Zp") (re.union (str.to_re "|S") (str.to_re "T")))))))) (re.++ ((_ re.loop 16 72) (re.++ (re.union (str.to_re "[K") (re.union (str.to_re "/$E") (re.union (str.to_re "mEv") (str.to_re "a$")))) (re.++ (re.union (str.to_re "`'{") (re.union (str.to_re ",") (re.union (str.to_re "6") (str.to_re "`")))) (re.++ (re.union (str.to_re "@Ry") (re.union (str.to_re "G") (re.union (str.to_re "~jS") (str.to_re "*V1")))) (re.union (str.to_re "?gC") (re.union (str.to_re ">MS") (re.union (str.to_re "C") (str.to_re "n1(")))))))) ((_ re.loop 7 113) (re.++ (re.union (str.to_re "7b") (re.union (str.to_re "Bd") (re.union (str.to_re "3>P") (str.to_re "^&O")))) (re.++ (re.union (str.to_re "=^8") (re.union (str.to_re "u") (re.union (str.to_re "[") (str.to_re ")F")))) (re.++ (re.union (str.to_re "Z~") (re.union (str.to_re "Y<Y") (re.union (str.to_re "i") (str.to_re "Ib")))) (re.union (str.to_re "/") (re.union (str.to_re "P") (re.union (str.to_re "C") (str.to_re "5C"))))))))))))))
(assert (not (str.in_re var0 (re.++ ((_ re.loop 15 222) (re.++ (re.union (str.to_re "wU") (re.union (str.to_re "<") (re.union (str.to_re "q") (str.to_re ":")))) (re.++ (re.union (str.to_re "5{`") (re.union (str.to_re "|") (re.union (str.to_re "a") (str.to_re "V")))) (re.++ (re.union (str.to_re "W") (re.union (str.to_re "y") (re.union (str.to_re "(i") (str.to_re "PT=")))) (re.union (str.to_re "0") (re.union (str.to_re "2}") (re.union (str.to_re "?<L") (str.to_re "3Cv")))))))) (re.++ ((_ re.loop 20 564) (re.++ (re.union (str.to_re "Ms") (re.union (str.to_re "6") (re.union (str.to_re "2L") (str.to_re "/mD")))) (re.++ (re.union (str.to_re "`") (re.union (str.to_re "G4") (re.union (str.to_re "_?") (str.to_re "+")))) (re.++ (re.union (str.to_re "T|") (re.union (str.to_re "X") (re.union (str.to_re "*T{") (str.to_re "H>")))) (re.union (str.to_re "9") (re.union (str.to_re "[f") (re.union (str.to_re "JU") (str.to_re "(1")))))))) (re.++ ((_ re.loop 5 824) (re.++ (re.union (str.to_re "*/R") (re.union (str.to_re "ck-") (re.union (str.to_re "_") (str.to_re "8Q")))) (re.++ (re.union (str.to_re "}") (re.union (str.to_re "wc") (re.union (str.to_re "J") (str.to_re "@")))) (re.++ (re.union (str.to_re "*") (re.union (str.to_re "-@J") (re.union (str.to_re "u") (str.to_re "(r")))) (re.union (str.to_re "fk2") (re.union (str.to_re ">GP") (re.union (str.to_re "P,[") (str.to_re "h-")))))))) ((_ re.loop 4 616) (re.++ (re.union (str.to_re "0cP") (re.union (str.to_re "+#") (re.union (str.to_re "j/M") (str.to_re "l")))) (re.++ (re.union (str.to_re "2M") (re.union (str.to_re "q") (re.union (str.to_re "M") (str.to_re "F")))) (re.++ (re.union (str.to_re "%}") (re.union (str.to_re "q4") (re.union (str.to_re "=sI") (str.to_re "K")))) (re.union (str.to_re "|!X") (re.union (str.to_re "\\Jp") (re.union (str.to_re ":") (str.to_re "`*'"))))))))))))))
(assert (not (str.in_re var0 (re.++ (re.* re.allchar) (re.++ (re.union (str.to_re "<") (re.union (str.to_re ">") (re.union (str.to_re "'") (re.union (str.to_re "\u0022") (str.to_re "&"))))) (re.* re.allchar))))))
(assert (<= 50 (str.len var0)))
(check-sat)
(get-model)
